NAME 
ROWS
 N  OBJ
 L  R0      
 E  R1      
 E  R2      
 E  R3      
 E  R4      
 E  R5      
 E  R6      
 E  R7      
 E  R8      
 E  R9      
 E  R10     
 E  R11     
 E  R12     
 E  R13     
 E  R14     
 E  R15     
 E  R16     
 E  R17     
 E  R18     
 E  R19     
 E  R20     
COLUMNS
    MARKER    'MARKER'                 'INTORG'
    I0(10)    OBJ       -11
    I0(10)    R0        8
    I0(10)    R1        11
    I0(10)    R2        7
    I0(10)    R3        3
    I0(10)    R4        11
    I0(10)    R5        15
    I0(10)    R6        8
    I0(10)    R7        12
    I0(10)    R8        14
    I0(10)    R20       1
    I1(10)    OBJ       -146
    I1(10)    R0        151
    I1(10)    R1        3
    I1(10)    R2        3
    I1(10)    R3        10
    I1(10)    R4        15
    I1(10)    R5        1
    I1(10)    R6        12
    I1(10)    R7        4
    I1(10)    R8        13
    I1(10)    R20       1
    I2(7)     OBJ       53
    I2(7)     R0        160
    I2(7)     R1        17
    I2(7)     R2        9
    I2(7)     R5        -1
    I2(7)     R7        16
    I2(7)     R8        11
    I2(7)     R20       1
    I3(8)     OBJ       -132
    I3(8)     R0        113
    I3(8)     R1        15
    I3(8)     R3        10
    I3(8)     R4        4
    I3(8)     R6        18
    I3(8)     R7        11
    I3(8)     R8        17
    I3(8)     R20       1
    I4(9)     OBJ       170
    I4(9)     R0        -72
    I4(9)     R1        14
    I4(9)     R2        1
    I4(9)     R3        9
    I4(9)     R4        8
    I4(9)     R5        9
    I4(9)     R6        8
    I4(9)     R8        3
    I4(9)     R20       1
    I5(8)     OBJ       -182
    I5(8)     R0        -32
    I5(8)     R1        1
    I5(8)     R2        19
    I5(8)     R4        7
    I5(8)     R5        2
    I5(8)     R7        18
    I5(8)     R8        14
    I5(8)     R20       1
    I6(6)     OBJ       73
    I6(6)     R0        -121
    I6(6)     R1        16
    I6(6)     R3        14
    I6(6)     R4        12
    I6(6)     R7        18
    I6(6)     R20       1
    I7(8)     OBJ       193
    I7(8)     R0        -65
    I7(8)     R1        14
    I7(8)     R2        2
    I7(8)     R4        7
    I7(8)     R5        12
    I7(8)     R6        12
    I7(8)     R8        16
    I7(8)     R20       1
    MARKER    'MARKER'                 'INTEND'
    C8(15)    OBJ       -3
    C8(15)    R0        6
    C8(15)    R1        7
    C8(15)    R3        17
    C8(15)    R6        17
    C8(15)    R7        13
    C8(15)    R8        13
    C8(15)    R9        3
    C8(15)    R10       16
    C8(15)    R11       15
    C8(15)    R12       8
    C8(15)    R15       4
    C8(15)    R16       3
    C8(15)    R17       2
    C8(15)    R18       15
    C8(15)    R19       1
    C9(14)    OBJ       -9
    C9(14)    R0        -7
    C9(14)    R1        14
    C9(14)    R2        7
    C9(14)    R3        -1
    C9(14)    R4        8
    C9(14)    R6        -1
    C9(14)    R7        8
    C9(14)    R8        -1
    C9(14)    R12       18
    C9(14)    R13       16
    C9(14)    R15       14
    C9(14)    R16       -1
    C9(14)    R17       4
    C9(14)    R18       13
    C10(18)   OBJ       -4
    C10(18)   R0        -4
    C10(18)   R1        5
    C10(18)   R2        1
    C10(18)   R3        2
    C10(18)   R4        1
    C10(18)   R5        16
    C10(18)   R6        10
    C10(18)   R7        3
    C10(18)   R8        6
    C10(18)   R9        2
    C10(18)   R10       8
    C10(18)   R11       7
    C10(18)   R12       15
    C10(18)   R13       16
    C10(18)   R14       5
    C10(18)   R16       17
    C10(18)   R17       18
    C10(18)   R19       16
    C11(16)   OBJ       -8
    C11(16)   R0        5
    C11(16)   R1        2
    C11(16)   R2        14
    C11(16)   R3        7
    C11(16)   R4        3
    C11(16)   R5        6
    C11(16)   R7        7
    C11(16)   R8        1
    C11(16)   R10       12
    C11(16)   R11       1
    C11(16)   R13       17
    C11(16)   R14       14
    C11(16)   R15       14
    C11(16)   R16       1
    C11(16)   R17       10
    C11(16)   R19       5
    C12(13)   OBJ       4
    C12(13)   R0        -4
    C12(13)   R4        8
    C12(13)   R5        19
    C12(13)   R7        6
    C12(13)   R8        11
    C12(13)   R9        7
    C12(13)   R10       12
    C12(13)   R13       4
    C12(13)   R14       5
    C12(13)   R15       3
    C12(13)   R17       13
    C12(13)   R18       14
    C12(13)   R19       16
    C13(18)   OBJ       -4
    C13(18)   R0        -7
    C13(18)   R1        4
    C13(18)   R2        19
    C13(18)   R3        -1
    C13(18)   R4        17
    C13(18)   R5        1
    C13(18)   R6        4
    C13(18)   R8        18
    C13(18)   R9        12
    C13(18)   R10       9
    C13(18)   R11       5
    C13(18)   R12       -1
    C13(18)   R13       2
    C13(18)   R14       10
    C13(18)   R16       14
    C13(18)   R17       19
    C13(18)   R18       1
    C13(18)   R19       7
    C14(18)   OBJ       -7
    C14(18)   R0        -5
    C14(18)   R1        7
    C14(18)   R2        14
    C14(18)   R3        16
    C14(18)   R4        12
    C14(18)   R5        10
    C14(18)   R6        5
    C14(18)   R8        15
    C14(18)   R9        18
    C14(18)   R10       18
    C14(18)   R11       6
    C14(18)   R13       16
    C14(18)   R14       15
    C14(18)   R15       -1
    C14(18)   R16       10
    C14(18)   R17       9
    C14(18)   R18       17
    C14(18)   R19       -1
    C15(15)   OBJ       -5
    C15(15)   R0        8
    C15(15)   R1        18
    C15(15)   R2        8
    C15(15)   R3        8
    C15(15)   R4        17
    C15(15)   R5        -1
    C15(15)   R6        8
    C15(15)   R7        11
    C15(15)   R9        -1
    C15(15)   R10       15
    C15(15)   R11       19
    C15(15)   R13       11
    C15(15)   R15       4
    C15(15)   R16       3
    C15(15)   R18       9
    C16(19)   OBJ       7
    C16(19)   R0        -6
    C16(19)   R1        3
    C16(19)   R2        17
    C16(19)   R3        2
    C16(19)   R4        11
    C16(19)   R5        3
    C16(19)   R6        7
    C16(19)   R7        11
    C16(19)   R8        8
    C16(19)   R9        1
    C16(19)   R11       3
    C16(19)   R12       2
    C16(19)   R13       13
    C16(19)   R14       1
    C16(19)   R15       6
    C16(19)   R16       7
    C16(19)   R17       18
    C16(19)   R18       16
    C16(19)   R19       2
    C17(15)   OBJ       -6
    C17(15)   R0        -2
    C17(15)   R1        3
    C17(15)   R2        13
    C17(15)   R3        -1
    C17(15)   R4        5
    C17(15)   R5        8
    C17(15)   R6        6
    C17(15)   R7        12
    C17(15)   R9        7
    C17(15)   R10       4
    C17(15)   R11       10
    C17(15)   R12       7
    C17(15)   R16       18
    C17(15)   R17       17
    C17(15)   R19       3
    C18(17)   OBJ       -3
    C18(17)   R0        -2
    C18(17)   R1        14
    C18(17)   R2        -1
    C18(17)   R3        16
    C18(17)   R4        18
    C18(17)   R5        3
    C18(17)   R6        19
    C18(17)   R7        12
    C18(17)   R8        8
    C18(17)   R9        1
    C18(17)   R11       7
    C18(17)   R12       1
    C18(17)   R13       2
    C18(17)   R15       10
    C18(17)   R16       -1
    C18(17)   R18       14
    C18(17)   R19       8
    C19(16)   OBJ       -2
    C19(16)   R0        9
    C19(16)   R2        8
    C19(16)   R3        11
    C19(16)   R4        13
    C19(16)   R5        14
    C19(16)   R6        8
    C19(16)   R7        9
    C19(16)   R8        4
    C19(16)   R9        -1
    C19(16)   R10       3
    C19(16)   R11       3
    C19(16)   R13       3
    C19(16)   R14       6
    C19(16)   R15       11
    C19(16)   R16       11
    C19(16)   R19       -1
    C20(1)    R1        1
    C21(1)    R2        1
    C22(1)    R3        1
    C23(1)    R4        1
    C24(1)    R5        1
    C25(1)    R6        1
    C26(1)    R7        1
    C27(1)    R8        1
    C28(1)    R9        1
    C29(1)    R10       1
    C30(1)    R11       1
    C31(1)    R12       1
    C32(1)    R13       1
    C33(1)    R14       1
    C34(1)    R15       1
    C35(1)    R16       1
    C36(1)    R17       1
    C37(1)    R18       1
    C38(1)    R19       1
    C39(1)    R20       1
RHS
    RHS1      R0        1.0012943116240518e+02
    RHS1      R1        99
    RHS1      R2        61
    RHS1      R3        66
    RHS1      R4        83
    RHS1      R5        84
    RHS1      R6        72
    RHS1      R7        87
    RHS1      R8        83
    RHS1      R9        61
    RHS1      R10       81
    RHS1      R11       77
    RHS1      R12       91
    RHS1      R13       63
    RHS1      R14       80
    RHS1      R15       96
    RHS1      R16       80
    RHS1      R17       63
    RHS1      R18       78
    RHS1      R19       97
    RHS1      R20       2
BOUNDS
 UP BND1      I0(10)    1
 UP BND1      I1(10)    1
 UP BND1      I2(7)     1
 UP BND1      I3(8)     1
 UP BND1      I4(9)     1
 UP BND1      I5(8)     1
 UP BND1      I6(6)     1
 UP BND1      I7(8)     1
ENDATA
